\ENCODING=ISO-8859-1
\Problem name: att48

Minimize
 obj1: 0 x(1,1) + 4726.65314995717 x(1,2) + 1204.34920185136 x(1,3)
       + 6362.50210216075 x(1,4) + 3656.99124964772 x(1,5)
       + 4726.65314995717 x(2,1) + 0 x(2,2) + 3587.42316990901 x(2,3)
       + 2011.66224799294 x(2,4) + 1841.4008254587 x(2,5)
       + 1204.34920185136 x(3,1) + 3587.42316990901 x(3,2) + 0 x(3,3)
       + 5162.02770236658 x(3,4) + 2457.86574084102 x(3,5)
       + 6362.50210216075 x(4,1) + 2011.66224799294 x(4,2)
       + 5162.02770236658 x(4,3) + 0 x(4,4) + 2798.67289978661 x(4,5)
       + 3656.99124964772 x(5,1) + 1841.4008254587 x(5,2)
       + 2457.86574084102 x(5,3) + 2798.67289978661 x(5,4) + 0 x(5,5) + 0 u(1)
Subject To
 degree(1)#0:  x(2,1) + x(3,1) + x(4,1) + x(5,1)  = 1
 degree(2)#1:  x(1,2) + x(3,2) + x(4,2) + x(5,2)  = 1
 degree(3)#2:  x(1,3) + x(2,3) + x(4,3) + x(5,3)  = 1
 degree(4)#3:  x(1,4) + x(2,4) + x(3,4) + x(5,4)  = 1
 degree(5)#4:  x(1,5) + x(2,5) + x(3,5) + x(4,5)  = 1
 degree(1)#5:  x(1,2) + x(1,3) + x(1,4) + x(1,5)  = 1
 degree(2)#6:  x(2,1) + x(2,3) + x(2,4) + x(2,5)  = 1
 degree(3)#7:  x(3,1) + x(3,2) + x(3,4) + x(3,5)  = 1
 degree(4)#8:  x(4,1) + x(4,2) + x(4,3) + x(4,5)  = 1
 degree(5)#9:  x(5,1) + x(5,2) + x(5,3) + x(5,4)  = 1
 degree(2)#10: 4 x(3,2) - u(2) + u(3) <= 3
 degree(2)#11: 4 x(4,2) - u(2) + u(4) <= 3
 degree(2)#12: 4 x(5,2) - u(2) + u(5) <= 3
 degree(3)#13: 4 x(2,3) + u(2) - u(3) <= 3
 degree(3)#14: 4 x(4,3) - u(3) + u(4) <= 3
 degree(3)#15: 4 x(5,3) - u(3) + u(5) <= 3
 degree(4)#16: 4 x(2,4) + u(2) - u(4) <= 3
 degree(4)#17: 4 x(3,4) + u(3) - u(4) <= 3
 degree(4)#18: 4 x(5,4) - u(4) + u(5) <= 3
 degree(5)#19: 4 x(2,5) + u(2) - u(5) <= 3
 degree(5)#20: 4 x(3,5) + u(3) - u(5) <= 3
 degree(5)#21: 4 x(4,5) + u(4) - u(5) <= 3
Bounds
      x(1,1) = 0
 0 <= x(1,2) <= 1
 0 <= x(1,3) <= 1
 0 <= x(1,4) <= 1
 0 <= x(1,5) <= 1
 0 <= x(2,1) <= 1
      x(2,2) = 0
 0 <= x(2,3) <= 1
 0 <= x(2,4) <= 1
 0 <= x(2,5) <= 1
 0 <= x(3,1) <= 1
 0 <= x(3,2) <= 1
      x(3,3) = 0
 0 <= x(3,4) <= 1
 0 <= x(3,5) <= 1
 0 <= x(4,1) <= 1
 0 <= x(4,2) <= 1
 0 <= x(4,3) <= 1
      x(4,4) = 0
 0 <= x(4,5) <= 1
 0 <= x(5,1) <= 1
 0 <= x(5,2) <= 1
 0 <= x(5,3) <= 1
 0 <= x(5,4) <= 1
      x(5,5) = 0
      u(1) = 1
 2 <= u(2) <= 5
 2 <= u(3) <= 5
 2 <= u(4) <= 5
 2 <= u(5) <= 5
Binaries
 x(1,1)  x(1,2)  x(1,3)  x(1,4)  x(1,5)  x(2,1)  x(2,2)  x(2,3)  x(2,4) 
 x(2,5)  x(3,1)  x(3,2)  x(3,3)  x(3,4)  x(3,5)  x(4,1)  x(4,2)  x(4,3) 
 x(4,4)  x(4,5)  x(5,1)  x(5,2)  x(5,3)  x(5,4)  x(5,5) 
End
